peakDumbCharging = 11100; 
Machine = anon_enum(16); 
machineSpeed = [3700,3700,3700,3700,3700,3700,3700,3700,3700,3700,3700,3700,3700,3700,3700,3700]; 
machineLoad = [3700,3700,3700,3700,3700,3700,3700,3700,3700,3700,3700,3700,3700,3700,3700,3700]; 
Car = anon_enum(10); 
demandCar = [10640,23440,9480,13960,1960,2160,8800,11040,20480,20200]; 
arrivalCar = [77,73,63,59,55,55,51,50,49,44]; 
departureCar = [81,84,69,68,57,58,57,57,56,51]; 
